% The Rogo problem Intro 7
% 
% http://www.rogopuzzle.co.nz/paper-rogos/intro-rogo-7/
%
rows = 5;
cols = 9;
max_steps = 20;
best = 33;
problem = array2d(1..rows, 1..cols, 
[
 %1 2 3 4 5 6 7,8,9
  3,2,1,W,W,W,1,3,5, % 1
  W,W,4,W,W,W,5,W,W, % 2
  2,W,W,B,2,B,W,W,2, % 3
  W,W,3,W,W,W,2,W,W, % 4
  2,4,4,W,W,W,1,1,4, % 5

]);
